molecule test {
0 1
N 11.73604 8.50080 -10.44528
H 12.36512 7.83994 -10.83484
H 12.09195 9.44153 -10.72461
H 10.83196 8.30861 -10.96393
C 11.66462 8.39347 -8.98323
H 12.67261 8.56049 -8.68076
C 10.73964 9.56993 -8.59075
H 9.63879 9.27048 -8.96795
H 11.09461 10.51888 -9.14200
C 10.55657 9.93424 -7.11236
H 11.44921 10.32263 -6.69315
H 10.27714 8.97857 -6.59725
S 9.24967 11.10484 -6.91010
C 10.44390 12.49235 -7.16194
H 11.47245 12.29443 -7.66105
H 10.56522 13.06787 -6.25163
H 9.88309 13.17239 -7.78997
C 11.16655 7.12900 -8.37483
O 10.15108 6.64862 -8.75514
--
-1 1
N 11.84096 6.64227 -7.27511
H 12.56644 7.12491 -6.93741
C 11.41484 5.43442 -6.51348
H 10.66005 5.00397 -7.11752
C 12.53216 4.36391 -6.26076
H 12.11832 3.52241 -5.66861
H 13.30177 4.79664 -5.48926
C 13.31617 3.75903 -7.44814
H 12.62364 3.67989 -8.33326
H 13.60499 2.65400 -7.19414
C 14.60889 4.52483 -7.80496
H 15.27049 4.50547 -6.95580
H 14.28076 5.53066 -8.13508
N 15.30753 3.76300 -8.87507
H 14.75175 3.29046 -9.56724
C 16.57297 3.41819 -8.92728
N 17.47799 3.96588 -8.11999
H 17.11594 4.70163 -7.53401
H 18.26217 3.45265 -7.93134
N 16.96494 2.34458 -9.63933
H 16.30914 1.88527 -10.22260
H 17.84707 1.98915 -9.44175
C 10.77050 5.85521 -5.25362
O 11.35193 6.66443 -4.53891

units angstrom

}

set {
basis jun-cc-pVDZ
scf_type df
freeze_core true
}

memory 12GB

energy('sapt0')
